p cnf 551 928
57 58 1 88 89 0
57 58 1 88 -89 0
57 58 1 -88 89 0
57 58 1 -88 -89 0
-57 -58 1 90 91 0
-57 -58 1 90 -91 0
-57 -58 1 -90 91 0
-57 -58 1 -90 -91 0
57 -58 -1 92 93 0
57 -58 -1 92 -93 0
57 -58 -1 -92 93 0
57 -58 -1 -92 -93 0
-57 58 -1 94 95 0
-57 58 -1 94 -95 0
-57 58 -1 -94 95 0
-57 58 -1 -94 -95 0
1 59 2 96 97 0
1 59 2 96 -97 0
1 59 2 -96 97 0
1 59 2 -96 -97 0
-1 -59 2 98 99 0
-1 -59 2 98 -99 0
-1 -59 2 -98 99 0
-1 -59 2 -98 -99 0
1 -59 -2 100 101 0
1 -59 -2 100 -101 0
1 -59 -2 -100 101 0
1 -59 -2 -100 -101 0
-1 59 -2 102 103 0
-1 59 -2 102 -103 0
-1 59 -2 -102 103 0
-1 59 -2 -102 -103 0
2 60 3 104 105 0
2 60 3 104 -105 0
2 60 3 -104 105 0
2 60 3 -104 -105 0
-2 -60 3 106 107 0
-2 -60 3 106 -107 0
-2 -60 3 -106 107 0
-2 -60 3 -106 -107 0
2 -60 -3 108 109 0
2 -60 -3 108 -109 0
2 -60 -3 -108 109 0
2 -60 -3 -108 -109 0
-2 60 -3 110 111 0
-2 60 -3 110 -111 0
-2 60 -3 -110 111 0
-2 60 -3 -110 -111 0
3 61 4 112 113 0
3 61 4 112 -113 0
3 61 4 -112 113 0
3 61 4 -112 -113 0
-3 -61 4 114 115 0
-3 -61 4 114 -115 0
-3 -61 4 -114 115 0
-3 -61 4 -114 -115 0
3 -61 -4 116 117 0
3 -61 -4 116 -117 0
3 -61 -4 -116 117 0
3 -61 -4 -116 -117 0
-3 61 -4 118 119 0
-3 61 -4 118 -119 0
-3 61 -4 -118 119 0
-3 61 -4 -118 -119 0
4 62 5 120 121 0
4 62 5 120 -121 0
4 62 5 -120 121 0
4 62 5 -120 -121 0
-4 -62 5 122 123 0
-4 -62 5 122 -123 0
-4 -62 5 -122 123 0
-4 -62 5 -122 -123 0
4 -62 -5 124 125 0
4 -62 -5 124 -125 0
4 -62 -5 -124 125 0
4 -62 -5 -124 -125 0
-4 62 -5 126 127 0
-4 62 -5 126 -127 0
-4 62 -5 -126 127 0
-4 62 -5 -126 -127 0
5 63 6 128 129 0
5 63 6 128 -129 0
5 63 6 -128 129 0
5 63 6 -128 -129 0
-5 -63 6 130 131 0
-5 -63 6 130 -131 0
-5 -63 6 -130 131 0
-5 -63 6 -130 -131 0
5 -63 -6 132 133 0
5 -63 -6 132 -133 0
5 -63 -6 -132 133 0
5 -63 -6 -132 -133 0
-5 63 -6 134 135 0
-5 63 -6 134 -135 0
-5 63 -6 -134 135 0
-5 63 -6 -134 -135 0
6 64 7 136 137 0
6 64 7 136 -137 0
6 64 7 -136 137 0
6 64 7 -136 -137 0
-6 -64 7 138 139 0
-6 -64 7 138 -139 0
-6 -64 7 -138 139 0
-6 -64 7 -138 -139 0
6 -64 -7 140 141 0
6 -64 -7 140 -141 0
6 -64 -7 -140 141 0
6 -64 -7 -140 -141 0
-6 64 -7 142 143 0
-6 64 -7 142 -143 0
-6 64 -7 -142 143 0
-6 64 -7 -142 -143 0
7 65 8 144 145 0
7 65 8 144 -145 0
7 65 8 -144 145 0
7 65 8 -144 -145 0
-7 -65 8 146 147 0
-7 -65 8 146 -147 0
-7 -65 8 -146 147 0
-7 -65 8 -146 -147 0
7 -65 -8 148 149 0
7 -65 -8 148 -149 0
7 -65 -8 -148 149 0
7 -65 -8 -148 -149 0
-7 65 -8 150 151 0
-7 65 -8 150 -151 0
-7 65 -8 -150 151 0
-7 65 -8 -150 -151 0
8 66 9 152 153 0
8 66 9 152 -153 0
8 66 9 -152 153 0
8 66 9 -152 -153 0
-8 -66 9 154 155 0
-8 -66 9 154 -155 0
-8 -66 9 -154 155 0
-8 -66 9 -154 -155 0
8 -66 -9 156 157 0
8 -66 -9 156 -157 0
8 -66 -9 -156 157 0
8 -66 -9 -156 -157 0
-8 66 -9 158 159 0
-8 66 -9 158 -159 0
-8 66 -9 -158 159 0
-8 66 -9 -158 -159 0
9 67 10 160 161 0
9 67 10 160 -161 0
9 67 10 -160 161 0
9 67 10 -160 -161 0
-9 -67 10 162 163 0
-9 -67 10 162 -163 0
-9 -67 10 -162 163 0
-9 -67 10 -162 -163 0
9 -67 -10 164 165 0
9 -67 -10 164 -165 0
9 -67 -10 -164 165 0
9 -67 -10 -164 -165 0
-9 67 -10 166 167 0
-9 67 -10 166 -167 0
-9 67 -10 -166 167 0
-9 67 -10 -166 -167 0
10 68 11 168 169 0
10 68 11 168 -169 0
10 68 11 -168 169 0
10 68 11 -168 -169 0
-10 -68 11 170 171 0
-10 -68 11 170 -171 0
-10 -68 11 -170 171 0
-10 -68 11 -170 -171 0
10 -68 -11 172 173 0
10 -68 -11 172 -173 0
10 -68 -11 -172 173 0
10 -68 -11 -172 -173 0
-10 68 -11 174 175 0
-10 68 -11 174 -175 0
-10 68 -11 -174 175 0
-10 68 -11 -174 -175 0
11 69 12 176 177 0
11 69 12 176 -177 0
11 69 12 -176 177 0
11 69 12 -176 -177 0
-11 -69 12 178 179 0
-11 -69 12 178 -179 0
-11 -69 12 -178 179 0
-11 -69 12 -178 -179 0
11 -69 -12 180 181 0
11 -69 -12 180 -181 0
11 -69 -12 -180 181 0
11 -69 -12 -180 -181 0
-11 69 -12 182 183 0
-11 69 -12 182 -183 0
-11 69 -12 -182 183 0
-11 69 -12 -182 -183 0
12 70 13 184 185 0
12 70 13 184 -185 0
12 70 13 -184 185 0
12 70 13 -184 -185 0
-12 -70 13 186 187 0
-12 -70 13 186 -187 0
-12 -70 13 -186 187 0
-12 -70 13 -186 -187 0
12 -70 -13 188 189 0
12 -70 -13 188 -189 0
12 -70 -13 -188 189 0
12 -70 -13 -188 -189 0
-12 70 -13 190 191 0
-12 70 -13 190 -191 0
-12 70 -13 -190 191 0
-12 70 -13 -190 -191 0
13 71 14 192 193 0
13 71 14 192 -193 0
13 71 14 -192 193 0
13 71 14 -192 -193 0
-13 -71 14 194 195 0
-13 -71 14 194 -195 0
-13 -71 14 -194 195 0
-13 -71 14 -194 -195 0
13 -71 -14 196 197 0
13 -71 -14 196 -197 0
13 -71 -14 -196 197 0
13 -71 -14 -196 -197 0
-13 71 -14 198 199 0
-13 71 -14 198 -199 0
-13 71 -14 -198 199 0
-13 71 -14 -198 -199 0
14 72 15 200 201 0
14 72 15 200 -201 0
14 72 15 -200 201 0
14 72 15 -200 -201 0
-14 -72 15 202 203 0
-14 -72 15 202 -203 0
-14 -72 15 -202 203 0
-14 -72 15 -202 -203 0
14 -72 -15 204 205 0
14 -72 -15 204 -205 0
14 -72 -15 -204 205 0
14 -72 -15 -204 -205 0
-14 72 -15 206 207 0
-14 72 -15 206 -207 0
-14 72 -15 -206 207 0
-14 72 -15 -206 -207 0
15 73 16 208 209 0
15 73 16 208 -209 0
15 73 16 -208 209 0
15 73 16 -208 -209 0
-15 -73 16 210 211 0
-15 -73 16 210 -211 0
-15 -73 16 -210 211 0
-15 -73 16 -210 -211 0
15 -73 -16 212 213 0
15 -73 -16 212 -213 0
15 -73 -16 -212 213 0
15 -73 -16 -212 -213 0
-15 73 -16 214 215 0
-15 73 -16 214 -215 0
-15 73 -16 -214 215 0
-15 73 -16 -214 -215 0
16 74 17 216 217 0
16 74 17 216 -217 0
16 74 17 -216 217 0
16 74 17 -216 -217 0
-16 -74 17 218 219 0
-16 -74 17 218 -219 0
-16 -74 17 -218 219 0
-16 -74 17 -218 -219 0
16 -74 -17 220 221 0
16 -74 -17 220 -221 0
16 -74 -17 -220 221 0
16 -74 -17 -220 -221 0
-16 74 -17 222 223 0
-16 74 -17 222 -223 0
-16 74 -17 -222 223 0
-16 74 -17 -222 -223 0
17 75 18 224 225 0
17 75 18 224 -225 0
17 75 18 -224 225 0
17 75 18 -224 -225 0
-17 -75 18 226 227 0
-17 -75 18 226 -227 0
-17 -75 18 -226 227 0
-17 -75 18 -226 -227 0
17 -75 -18 228 229 0
17 -75 -18 228 -229 0
17 -75 -18 -228 229 0
17 -75 -18 -228 -229 0
-17 75 -18 230 231 0
-17 75 -18 230 -231 0
-17 75 -18 -230 231 0
-17 75 -18 -230 -231 0
18 76 19 232 233 0
18 76 19 232 -233 0
18 76 19 -232 233 0
18 76 19 -232 -233 0
-18 -76 19 234 235 0
-18 -76 19 234 -235 0
-18 -76 19 -234 235 0
-18 -76 19 -234 -235 0
18 -76 -19 236 237 0
18 -76 -19 236 -237 0
18 -76 -19 -236 237 0
18 -76 -19 -236 -237 0
-18 76 -19 238 239 0
-18 76 -19 238 -239 0
-18 76 -19 -238 239 0
-18 76 -19 -238 -239 0
19 77 20 240 241 0
19 77 20 240 -241 0
19 77 20 -240 241 0
19 77 20 -240 -241 0
-19 -77 20 242 243 0
-19 -77 20 242 -243 0
-19 -77 20 -242 243 0
-19 -77 20 -242 -243 0
19 -77 -20 244 245 0
19 -77 -20 244 -245 0
19 -77 -20 -244 245 0
19 -77 -20 -244 -245 0
-19 77 -20 246 247 0
-19 77 -20 246 -247 0
-19 77 -20 -246 247 0
-19 77 -20 -246 -247 0
20 78 21 248 249 0
20 78 21 248 -249 0
20 78 21 -248 249 0
20 78 21 -248 -249 0
-20 -78 21 250 251 0
-20 -78 21 250 -251 0
-20 -78 21 -250 251 0
-20 -78 21 -250 -251 0
20 -78 -21 252 253 0
20 -78 -21 252 -253 0
20 -78 -21 -252 253 0
20 -78 -21 -252 -253 0
-20 78 -21 254 255 0
-20 78 -21 254 -255 0
-20 78 -21 -254 255 0
-20 78 -21 -254 -255 0
21 79 22 256 257 0
21 79 22 256 -257 0
21 79 22 -256 257 0
21 79 22 -256 -257 0
-21 -79 22 258 259 0
-21 -79 22 258 -259 0
-21 -79 22 -258 259 0
-21 -79 22 -258 -259 0
21 -79 -22 260 261 0
21 -79 -22 260 -261 0
21 -79 -22 -260 261 0
21 -79 -22 -260 -261 0
-21 79 -22 262 263 0
-21 79 -22 262 -263 0
-21 79 -22 -262 263 0
-21 79 -22 -262 -263 0
22 80 23 264 265 0
22 80 23 264 -265 0
22 80 23 -264 265 0
22 80 23 -264 -265 0
-22 -80 23 266 267 0
-22 -80 23 266 -267 0
-22 -80 23 -266 267 0
-22 -80 23 -266 -267 0
22 -80 -23 268 269 0
22 -80 -23 268 -269 0
22 -80 -23 -268 269 0
22 -80 -23 -268 -269 0
-22 80 -23 270 271 0
-22 80 -23 270 -271 0
-22 80 -23 -270 271 0
-22 80 -23 -270 -271 0
23 81 24 272 273 0
23 81 24 272 -273 0
23 81 24 -272 273 0
23 81 24 -272 -273 0
-23 -81 24 274 275 0
-23 -81 24 274 -275 0
-23 -81 24 -274 275 0
-23 -81 24 -274 -275 0
23 -81 -24 276 277 0
23 -81 -24 276 -277 0
23 -81 -24 -276 277 0
23 -81 -24 -276 -277 0
-23 81 -24 278 279 0
-23 81 -24 278 -279 0
-23 81 -24 -278 279 0
-23 81 -24 -278 -279 0
24 82 25 280 281 0
24 82 25 280 -281 0
24 82 25 -280 281 0
24 82 25 -280 -281 0
-24 -82 25 282 283 0
-24 -82 25 282 -283 0
-24 -82 25 -282 283 0
-24 -82 25 -282 -283 0
24 -82 -25 284 285 0
24 -82 -25 284 -285 0
24 -82 -25 -284 285 0
24 -82 -25 -284 -285 0
-24 82 -25 286 287 0
-24 82 -25 286 -287 0
-24 82 -25 -286 287 0
-24 82 -25 -286 -287 0
25 83 26 288 289 0
25 83 26 288 -289 0
25 83 26 -288 289 0
25 83 26 -288 -289 0
-25 -83 26 290 291 0
-25 -83 26 290 -291 0
-25 -83 26 -290 291 0
-25 -83 26 -290 -291 0
25 -83 -26 292 293 0
25 -83 -26 292 -293 0
25 -83 -26 -292 293 0
25 -83 -26 -292 -293 0
-25 83 -26 294 295 0
-25 83 -26 294 -295 0
-25 83 -26 -294 295 0
-25 83 -26 -294 -295 0
26 84 27 296 297 0
26 84 27 296 -297 0
26 84 27 -296 297 0
26 84 27 -296 -297 0
-26 -84 27 298 299 0
-26 -84 27 298 -299 0
-26 -84 27 -298 299 0
-26 -84 27 -298 -299 0
26 -84 -27 300 301 0
26 -84 -27 300 -301 0
26 -84 -27 -300 301 0
26 -84 -27 -300 -301 0
-26 84 -27 302 303 0
-26 84 -27 302 -303 0
-26 84 -27 -302 303 0
-26 84 -27 -302 -303 0
27 85 28 304 305 0
27 85 28 304 -305 0
27 85 28 -304 305 0
27 85 28 -304 -305 0
-27 -85 28 306 307 0
-27 -85 28 306 -307 0
-27 -85 28 -306 307 0
-27 -85 28 -306 -307 0
27 -85 -28 308 309 0
27 -85 -28 308 -309 0
27 -85 -28 -308 309 0
27 -85 -28 -308 -309 0
-27 85 -28 310 311 0
-27 85 -28 310 -311 0
-27 85 -28 -310 311 0
-27 85 -28 -310 -311 0
28 86 87 312 313 0
28 86 87 312 -313 0
28 86 87 -312 313 0
28 86 87 -312 -313 0
-28 -86 87 314 315 0
-28 -86 87 314 -315 0
-28 -86 87 -314 315 0
-28 -86 87 -314 -315 0
28 -86 -87 316 317 0
28 -86 -87 316 -317 0
28 -86 -87 -316 317 0
28 -86 -87 -316 -317 0
-28 86 -87 318 319 0
-28 86 -87 318 -319 0
-28 86 -87 -318 319 0
-28 86 -87 -318 -319 0
29 86 87 320 321 0
29 86 87 320 -321 0
29 86 87 -320 321 0
29 86 87 -320 -321 0
-29 -86 87 322 323 0
-29 -86 87 322 -323 0
-29 -86 87 -322 323 0
-29 -86 87 -322 -323 0
29 -86 -87 324 325 0
29 -86 -87 324 -325 0
29 -86 -87 -324 325 0
29 -86 -87 -324 -325 0
-29 86 -87 326 327 0
-29 86 -87 326 -327 0
-29 86 -87 -326 327 0
-29 86 -87 -326 -327 0
30 85 29 328 329 0
30 85 29 328 -329 0
30 85 29 -328 329 0
30 85 29 -328 -329 0
-30 -85 29 330 331 0
-30 -85 29 330 -331 0
-30 -85 29 -330 331 0
-30 -85 29 -330 -331 0
30 -85 -29 332 333 0
30 -85 -29 332 -333 0
30 -85 -29 -332 333 0
30 -85 -29 -332 -333 0
-30 85 -29 334 335 0
-30 85 -29 334 -335 0
-30 85 -29 -334 335 0
-30 85 -29 -334 -335 0
31 84 30 336 337 0
31 84 30 336 -337 0
31 84 30 -336 337 0
31 84 30 -336 -337 0
-31 -84 30 338 339 0
-31 -84 30 338 -339 0
-31 -84 30 -338 339 0
-31 -84 30 -338 -339 0
31 -84 -30 340 341 0
31 -84 -30 340 -341 0
31 -84 -30 -340 341 0
31 -84 -30 -340 -341 0
-31 84 -30 342 343 0
-31 84 -30 342 -343 0
-31 84 -30 -342 343 0
-31 84 -30 -342 -343 0
32 83 31 344 345 0
32 83 31 344 -345 0
32 83 31 -344 345 0
32 83 31 -344 -345 0
-32 -83 31 346 347 0
-32 -83 31 346 -347 0
-32 -83 31 -346 347 0
-32 -83 31 -346 -347 0
32 -83 -31 348 349 0
32 -83 -31 348 -349 0
32 -83 -31 -348 349 0
32 -83 -31 -348 -349 0
-32 83 -31 350 351 0
-32 83 -31 350 -351 0
-32 83 -31 -350 351 0
-32 83 -31 -350 -351 0
33 82 32 352 353 0
33 82 32 352 -353 0
33 82 32 -352 353 0
33 82 32 -352 -353 0
-33 -82 32 354 355 0
-33 -82 32 354 -355 0
-33 -82 32 -354 355 0
-33 -82 32 -354 -355 0
33 -82 -32 356 357 0
33 -82 -32 356 -357 0
33 -82 -32 -356 357 0
33 -82 -32 -356 -357 0
-33 82 -32 358 359 0
-33 82 -32 358 -359 0
-33 82 -32 -358 359 0
-33 82 -32 -358 -359 0
34 81 33 360 361 0
34 81 33 360 -361 0
34 81 33 -360 361 0
34 81 33 -360 -361 0
-34 -81 33 362 363 0
-34 -81 33 362 -363 0
-34 -81 33 -362 363 0
-34 -81 33 -362 -363 0
34 -81 -33 364 365 0
34 -81 -33 364 -365 0
34 -81 -33 -364 365 0
34 -81 -33 -364 -365 0
-34 81 -33 366 367 0
-34 81 -33 366 -367 0
-34 81 -33 -366 367 0
-34 81 -33 -366 -367 0
35 80 34 368 369 0
35 80 34 368 -369 0
35 80 34 -368 369 0
35 80 34 -368 -369 0
-35 -80 34 370 371 0
-35 -80 34 370 -371 0
-35 -80 34 -370 371 0
-35 -80 34 -370 -371 0
35 -80 -34 372 373 0
35 -80 -34 372 -373 0
35 -80 -34 -372 373 0
35 -80 -34 -372 -373 0
-35 80 -34 374 375 0
-35 80 -34 374 -375 0
-35 80 -34 -374 375 0
-35 80 -34 -374 -375 0
36 79 35 376 377 0
36 79 35 376 -377 0
36 79 35 -376 377 0
36 79 35 -376 -377 0
-36 -79 35 378 379 0
-36 -79 35 378 -379 0
-36 -79 35 -378 379 0
-36 -79 35 -378 -379 0
36 -79 -35 380 381 0
36 -79 -35 380 -381 0
36 -79 -35 -380 381 0
36 -79 -35 -380 -381 0
-36 79 -35 382 383 0
-36 79 -35 382 -383 0
-36 79 -35 -382 383 0
-36 79 -35 -382 -383 0
37 78 36 384 385 0
37 78 36 384 -385 0
37 78 36 -384 385 0
37 78 36 -384 -385 0
-37 -78 36 386 387 0
-37 -78 36 386 -387 0
-37 -78 36 -386 387 0
-37 -78 36 -386 -387 0
37 -78 -36 388 389 0
37 -78 -36 388 -389 0
37 -78 -36 -388 389 0
37 -78 -36 -388 -389 0
-37 78 -36 390 391 0
-37 78 -36 390 -391 0
-37 78 -36 -390 391 0
-37 78 -36 -390 -391 0
38 77 37 392 393 0
38 77 37 392 -393 0
38 77 37 -392 393 0
38 77 37 -392 -393 0
-38 -77 37 394 395 0
-38 -77 37 394 -395 0
-38 -77 37 -394 395 0
-38 -77 37 -394 -395 0
38 -77 -37 396 397 0
38 -77 -37 396 -397 0
38 -77 -37 -396 397 0
38 -77 -37 -396 -397 0
-38 77 -37 398 399 0
-38 77 -37 398 -399 0
-38 77 -37 -398 399 0
-38 77 -37 -398 -399 0
39 76 38 400 401 0
39 76 38 400 -401 0
39 76 38 -400 401 0
39 76 38 -400 -401 0
-39 -76 38 402 403 0
-39 -76 38 402 -403 0
-39 -76 38 -402 403 0
-39 -76 38 -402 -403 0
39 -76 -38 404 405 0
39 -76 -38 404 -405 0
39 -76 -38 -404 405 0
39 -76 -38 -404 -405 0
-39 76 -38 406 407 0
-39 76 -38 406 -407 0
-39 76 -38 -406 407 0
-39 76 -38 -406 -407 0
40 75 39 408 409 0
40 75 39 408 -409 0
40 75 39 -408 409 0
40 75 39 -408 -409 0
-40 -75 39 410 411 0
-40 -75 39 410 -411 0
-40 -75 39 -410 411 0
-40 -75 39 -410 -411 0
40 -75 -39 412 413 0
40 -75 -39 412 -413 0
40 -75 -39 -412 413 0
40 -75 -39 -412 -413 0
-40 75 -39 414 415 0
-40 75 -39 414 -415 0
-40 75 -39 -414 415 0
-40 75 -39 -414 -415 0
41 74 40 416 417 0
41 74 40 416 -417 0
41 74 40 -416 417 0
41 74 40 -416 -417 0
-41 -74 40 418 419 0
-41 -74 40 418 -419 0
-41 -74 40 -418 419 0
-41 -74 40 -418 -419 0
41 -74 -40 420 421 0
41 -74 -40 420 -421 0
41 -74 -40 -420 421 0
41 -74 -40 -420 -421 0
-41 74 -40 422 423 0
-41 74 -40 422 -423 0
-41 74 -40 -422 423 0
-41 74 -40 -422 -423 0
42 73 41 424 425 0
42 73 41 424 -425 0
42 73 41 -424 425 0
42 73 41 -424 -425 0
-42 -73 41 426 427 0
-42 -73 41 426 -427 0
-42 -73 41 -426 427 0
-42 -73 41 -426 -427 0
42 -73 -41 428 429 0
42 -73 -41 428 -429 0
42 -73 -41 -428 429 0
42 -73 -41 -428 -429 0
-42 73 -41 430 431 0
-42 73 -41 430 -431 0
-42 73 -41 -430 431 0
-42 73 -41 -430 -431 0
43 72 42 432 433 0
43 72 42 432 -433 0
43 72 42 -432 433 0
43 72 42 -432 -433 0
-43 -72 42 434 435 0
-43 -72 42 434 -435 0
-43 -72 42 -434 435 0
-43 -72 42 -434 -435 0
43 -72 -42 436 437 0
43 -72 -42 436 -437 0
43 -72 -42 -436 437 0
43 -72 -42 -436 -437 0
-43 72 -42 438 439 0
-43 72 -42 438 -439 0
-43 72 -42 -438 439 0
-43 72 -42 -438 -439 0
44 71 43 440 441 0
44 71 43 440 -441 0
44 71 43 -440 441 0
44 71 43 -440 -441 0
-44 -71 43 442 443 0
-44 -71 43 442 -443 0
-44 -71 43 -442 443 0
-44 -71 43 -442 -443 0
44 -71 -43 444 445 0
44 -71 -43 444 -445 0
44 -71 -43 -444 445 0
44 -71 -43 -444 -445 0
-44 71 -43 446 447 0
-44 71 -43 446 -447 0
-44 71 -43 -446 447 0
-44 71 -43 -446 -447 0
45 70 44 448 449 0
45 70 44 448 -449 0
45 70 44 -448 449 0
45 70 44 -448 -449 0
-45 -70 44 450 451 0
-45 -70 44 450 -451 0
-45 -70 44 -450 451 0
-45 -70 44 -450 -451 0
45 -70 -44 452 453 0
45 -70 -44 452 -453 0
45 -70 -44 -452 453 0
45 -70 -44 -452 -453 0
-45 70 -44 454 455 0
-45 70 -44 454 -455 0
-45 70 -44 -454 455 0
-45 70 -44 -454 -455 0
46 69 45 456 457 0
46 69 45 456 -457 0
46 69 45 -456 457 0
46 69 45 -456 -457 0
-46 -69 45 458 459 0
-46 -69 45 458 -459 0
-46 -69 45 -458 459 0
-46 -69 45 -458 -459 0
46 -69 -45 460 461 0
46 -69 -45 460 -461 0
46 -69 -45 -460 461 0
46 -69 -45 -460 -461 0
-46 69 -45 462 463 0
-46 69 -45 462 -463 0
-46 69 -45 -462 463 0
-46 69 -45 -462 -463 0
47 68 46 464 465 0
47 68 46 464 -465 0
47 68 46 -464 465 0
47 68 46 -464 -465 0
-47 -68 46 466 467 0
-47 -68 46 466 -467 0
-47 -68 46 -466 467 0
-47 -68 46 -466 -467 0
47 -68 -46 468 469 0
47 -68 -46 468 -469 0
47 -68 -46 -468 469 0
47 -68 -46 -468 -469 0
-47 68 -46 470 471 0
-47 68 -46 470 -471 0
-47 68 -46 -470 471 0
-47 68 -46 -470 -471 0
48 67 47 472 473 0
48 67 47 472 -473 0
48 67 47 -472 473 0
48 67 47 -472 -473 0
-48 -67 47 474 475 0
-48 -67 47 474 -475 0
-48 -67 47 -474 475 0
-48 -67 47 -474 -475 0
48 -67 -47 476 477 0
48 -67 -47 476 -477 0
48 -67 -47 -476 477 0
48 -67 -47 -476 -477 0
-48 67 -47 478 479 0
-48 67 -47 478 -479 0
-48 67 -47 -478 479 0
-48 67 -47 -478 -479 0
49 66 48 480 481 0
49 66 48 480 -481 0
49 66 48 -480 481 0
49 66 48 -480 -481 0
-49 -66 48 482 483 0
-49 -66 48 482 -483 0
-49 -66 48 -482 483 0
-49 -66 48 -482 -483 0
49 -66 -48 484 485 0
49 -66 -48 484 -485 0
49 -66 -48 -484 485 0
49 -66 -48 -484 -485 0
-49 66 -48 486 487 0
-49 66 -48 486 -487 0
-49 66 -48 -486 487 0
-49 66 -48 -486 -487 0
50 65 49 488 489 0
50 65 49 488 -489 0
50 65 49 -488 489 0
50 65 49 -488 -489 0
-50 -65 49 490 491 0
-50 -65 49 490 -491 0
-50 -65 49 -490 491 0
-50 -65 49 -490 -491 0
50 -65 -49 492 493 0
50 -65 -49 492 -493 0
50 -65 -49 -492 493 0
50 -65 -49 -492 -493 0
-50 65 -49 494 495 0
-50 65 -49 494 -495 0
-50 65 -49 -494 495 0
-50 65 -49 -494 -495 0
51 64 50 496 497 0
51 64 50 496 -497 0
51 64 50 -496 497 0
51 64 50 -496 -497 0
-51 -64 50 498 499 0
-51 -64 50 498 -499 0
-51 -64 50 -498 499 0
-51 -64 50 -498 -499 0
51 -64 -50 500 501 0
51 -64 -50 500 -501 0
51 -64 -50 -500 501 0
51 -64 -50 -500 -501 0
-51 64 -50 502 503 0
-51 64 -50 502 -503 0
-51 64 -50 -502 503 0
-51 64 -50 -502 -503 0
52 63 51 504 505 0
52 63 51 504 -505 0
52 63 51 -504 505 0
52 63 51 -504 -505 0
-52 -63 51 506 507 0
-52 -63 51 506 -507 0
-52 -63 51 -506 507 0
-52 -63 51 -506 -507 0
52 -63 -51 508 509 0
52 -63 -51 508 -509 0
52 -63 -51 -508 509 0
52 -63 -51 -508 -509 0
-52 63 -51 510 511 0
-52 63 -51 510 -511 0
-52 63 -51 -510 511 0
-52 63 -51 -510 -511 0
53 62 52 512 513 0
53 62 52 512 -513 0
53 62 52 -512 513 0
53 62 52 -512 -513 0
-53 -62 52 514 515 0
-53 -62 52 514 -515 0
-53 -62 52 -514 515 0
-53 -62 52 -514 -515 0
53 -62 -52 516 517 0
53 -62 -52 516 -517 0
53 -62 -52 -516 517 0
53 -62 -52 -516 -517 0
-53 62 -52 518 519 0
-53 62 -52 518 -519 0
-53 62 -52 -518 519 0
-53 62 -52 -518 -519 0
54 61 53 520 521 0
54 61 53 520 -521 0
54 61 53 -520 521 0
54 61 53 -520 -521 0
-54 -61 53 522 523 0
-54 -61 53 522 -523 0
-54 -61 53 -522 523 0
-54 -61 53 -522 -523 0
54 -61 -53 524 525 0
54 -61 -53 524 -525 0
54 -61 -53 -524 525 0
54 -61 -53 -524 -525 0
-54 61 -53 526 527 0
-54 61 -53 526 -527 0
-54 61 -53 -526 527 0
-54 61 -53 -526 -527 0
55 60 54 528 529 0
55 60 54 528 -529 0
55 60 54 -528 529 0
55 60 54 -528 -529 0
-55 -60 54 530 531 0
-55 -60 54 530 -531 0
-55 -60 54 -530 531 0
-55 -60 54 -530 -531 0
55 -60 -54 532 533 0
55 -60 -54 532 -533 0
55 -60 -54 -532 533 0
55 -60 -54 -532 -533 0
-55 60 -54 534 535 0
-55 60 -54 534 -535 0
-55 60 -54 -534 535 0
-55 60 -54 -534 -535 0
56 59 55 536 537 0
56 59 55 536 -537 0
56 59 55 -536 537 0
56 59 55 -536 -537 0
-56 -59 55 538 539 0
-56 -59 55 538 -539 0
-56 -59 55 -538 539 0
-56 -59 55 -538 -539 0
56 -59 -55 540 541 0
56 -59 -55 540 -541 0
56 -59 -55 -540 541 0
56 -59 -55 -540 -541 0
-56 59 -55 542 543 0
-56 59 -55 542 -543 0
-56 59 -55 -542 543 0
-56 59 -55 -542 -543 0
57 58 -56 544 545 0
57 58 -56 544 -545 0
57 58 -56 -544 545 0
57 58 -56 -544 -545 0
-57 -58 -56 546 547 0
-57 -58 -56 546 -547 0
-57 -58 -56 -546 547 0
-57 -58 -56 -546 -547 0
57 -58 56 548 549 0
57 -58 56 548 -549 0
57 -58 56 -548 549 0
57 -58 56 -548 -549 0
-57 58 56 550 551 0
-57 58 56 550 -551 0
-57 58 56 -550 551 0
-57 58 56 -550 -551 0
